92	0

0	3	2	3	4
3	3	5	7	9
1	5	5	6	7	8	9
9	7	12	15	17	19	21	23	24
7	5	17	19	21	23	24
5	4	11	13	14	18
8	3	17	19	24
3	2	10	16
1	2	10	16
2	4	11	13	14	18
3	7	12	15	17	19	21	23	24
4	3	25	26	34
5	3	17	19	24
4	5	17	19	21	23	24
3	3	20	22	26
7	3	17	19	24
5	6	27	28	29	30	32	33
6	3	20	22	26
1	3	20	22	26
5	4	27	30	32	33
8	4	27	31	32	33
2	2	25	34
7	4	27	30	32	33
10	1	31
2	6	27	28	29	30	32	33
7	3	27	31	32
6	4	42	43	48	49
7	4	35	38	40	41
7	4	35	38	40	41
4	1	31
2	4	35	38	40	41
4	2	36	37
10	8	44	45	46	47	48	49	50	54
10	2	36	37
1	2	36	37
1	1	39
3	3	43	48	49
8	4	44	45	47	54
1	4	42	43	48	49
8	4	44	45	47	54
8	4	44	45	47	54
7	3	47	54	56
2	6	44	45	46	47	50	54
5	6	51	52	53	55	57	58
4	7	51	52	53	55	56	57	58
8	6	51	52	55	57	58	59
3	6	51	52	53	55	57	58
9	6	51	52	55	57	58	59
8	6	51	52	53	55	57	58
8	6	51	52	55	57	58	59
3	4	60	61	62	67
5	6	63	64	65	67	68	69
2	1	59
8	6	63	64	65	67	68	69
7	2	63	65
8	5	63	64	65	68	69
3	4	60	61	62	67
5	6	63	64	65	67	68	69
2	4	60	61	62	67
6	6	66	70	71	73	77	78
3	5	63	64	65	68	69
8	2	70	77
10	5	76	79	80	81	82
2	6	66	70	71	73	77	78
2	6	66	70	71	73	77	78
5	2	72	75
7	2	72	74
4	3	70	71	77
5	2	70	77
1	2	72	74
9	2	79	85
2	5	76	79	80	81	82
6	6	75	76	79	80	81	82
3	6	75	76	79	80	81	82
10	3	83	84	89
8	3	83	84	89
10	4	83	84	85	86
9	3	79	80	82
3	3	83	84	86
3	4	83	84	85	86
7	3	83	84	86
7	3	83	84	89
7	2	87	91
3	2	87	88
6	3	87	88	89
2	3	87	88	89
3	1	90
5	2	90	91
7	1	90
10	1	92
7	1	92
0	0
